(set-info :smt-lib-version 2.6)
(set-logic UF)
(set-info :source |
Generated by: Andrew Reynolds
Generated on: 2017-04-28
Generator: Sledgehammer, converted to v2.6 by CVC4
Application: Verfication goals in Isabelle
Target solver: CVC4, Z3
Publications: "A Decision Procedure for (Co)Datatypes" by Andrew Reynolds and Jasmin Blanchette, CADE 2015.
|)
(set-info :license "https://creativecommons.org/licenses/by/4.0/")
(set-info :category "industrial")
(set-info :status unknown)


(declare-sort A$ 0)
(declare-sort Nat$ 0)
(declare-sort Enat_set$ 0)
(declare-sort Nat_nat_fun$ 0)
(declare-sort Bool_nat_fun$ 0)
(declare-sort Nat_bool_fun$ 0)
(declare-sort Nat_enat_fun$ 0)
(declare-sort Enat_bool_fun$ 0)
(declare-sort Enat_enat_fun$ 0)
(declare-sort Nat_natural_fun$ 0)
(declare-sort Natural_bool_fun$ 0)
(declare-sort A_stream_bool_fun$ 0)
(declare-sort Natural_natural_fun$ 0)
(declare-sort Enat_enat_bool_fun_fun$ 0)
(declare-sort Nat_option$ 0)
(declare-sort Enat$ 0)
(declare-fun none$ () Nat_option$)
(declare-fun the$ (Nat_option$) Nat$)
(declare-fun some$ (Nat$) Nat_option$)
(declare-fun rep_enat$ (Enat$) Nat_option$)
(declare-fun abs_enat$ (Nat_option$) Enat$)
(declare-sort A_stream$ 0)
(declare-fun shd$ (A_stream$) A$)
(declare-fun stl$ (A_stream$) A_stream$)
(declare-fun sCons$ (A$ A_stream$) A_stream$)
(declare-sort Natural$ 0)
(declare-sort Nibble$ 0)
(declare-sort Char$ 0)
(declare-sort Char_list$ 0)
(declare-sort Literal$ 0)
(declare-fun nat_of_natural$ (Natural$) Nat$)
(declare-fun natural_of_nat$ (Nat$) Natural$)
(declare-fun nibble0$ () Nibble$)
(declare-fun nibble1$ () Nibble$)
(declare-fun nibble2$ () Nibble$)
(declare-fun nibble3$ () Nibble$)
(declare-fun nibble4$ () Nibble$)
(declare-fun nibble5$ () Nibble$)
(declare-fun nibble6$ () Nibble$)
(declare-fun nibble7$ () Nibble$)
(declare-fun nibble8$ () Nibble$)
(declare-fun nibble9$ () Nibble$)
(declare-fun nibbleA$ () Nibble$)
(declare-fun nibbleB$ () Nibble$)
(declare-fun nibbleC$ () Nibble$)
(declare-fun nibbleD$ () Nibble$)
(declare-fun nibbleE$ () Nibble$)
(declare-fun nibbleF$ () Nibble$)
(declare-fun select$ (Char$) Nibble$)
(declare-fun selecta$ (Char$) Nibble$)
(declare-fun char$ (Nibble$ Nibble$) Char$)
(declare-fun nil$ () Char_list$)
(declare-fun hd$ (Char_list$) Char$)
(declare-fun tl$ (Char_list$) Char_list$)
(declare-fun cons$ (Char$ Char_list$) Char_list$)
(declare-fun explode$ (Literal$) Char_list$)
(declare-fun str$ (Char_list$) Literal$)
(declare-fun p$ () A_stream_bool_fun$)
(declare-fun ev$ (A_stream_bool_fun$) A_stream_bool_fun$)
(declare-fun uu$ (Enat_set$) Enat_bool_fun$)
(declare-fun alw$ (A_stream_bool_fun$) A_stream_bool_fun$)
(declare-fun one$ () Enat$)
(declare-fun suc$ (Natural$) Natural$)
(declare-fun eSuc$ (Enat$) Enat$)
(declare-fun enat$ (Nat$) Enat$)
(declare-fun one$a () Nat$)
(declare-fun one$b () Natural$)
(declare-fun plus$ (Nat$ Nat$) Nat$)
(declare-fun size$ (Enat$) Nat$)
(declare-fun zero$ () Enat$)
(declare-fun epred$ (Enat$) Enat$)
(declare-fun minus$ (Nat$) Nat_nat_fun$)
(declare-fun omega$ () A_stream$)
(declare-fun plus$a (Natural$ Natural$) Natural$)
(declare-fun plus$b (Enat$ Enat$) Enat$)
(declare-fun power$ (Natural$) Nat_natural_fun$)
(declare-fun size$a (Literal$) Nat$)
(declare-fun size$b (Nibble$) Nat$)
(declare-fun size$c (Char$) Nat$)
(declare-fun size$d () Bool_nat_fun$)
(declare-fun size$e (Natural$) Nat$)
(declare-fun times$ (Enat$ Enat$) Enat$)
(declare-fun zero$a () Nat$)
(declare-fun zero$b () Natural$)
(declare-fun member$ (Enat$ Enat_set$) Bool)
(declare-fun minus$a (Enat$) Enat_enat_fun$)
(declare-fun minus$b (Natural$) Natural_natural_fun$)
(declare-fun power$a (Enat$) Nat_enat_fun$)
(declare-fun power$b (Nat$) Nat_nat_fun$)
(declare-fun scount$ (A_stream_bool_fun$ A_stream$) Enat$)
(declare-fun times$a (Natural$ Natural$) Natural$)
(declare-fun times$b (Nat$) Nat_nat_fun$)
(declare-fun collect$ (Enat_bool_fun$) Enat_set$)
(declare-fun fun_app$ (Enat_bool_fun$ Enat$) Bool)
(declare-fun of_bool$ (Bool) Enat$)
(declare-fun enat_set$ () Enat_set$)
(declare-fun fun_app$a (A_stream_bool_fun$ A_stream$) Bool)
(declare-fun fun_app$b (Enat_enat_bool_fun_fun$ Enat$) Enat_bool_fun$)
(declare-fun fun_app$c (Bool_nat_fun$ Bool) Nat$)
(declare-fun fun_app$d (Nat_bool_fun$ Nat$) Bool)
(declare-fun fun_app$e (Natural_bool_fun$ Natural$) Bool)
(declare-fun fun_app$f (Nat_nat_fun$ Nat$) Nat$)
(declare-fun fun_app$g (Enat_enat_fun$ Enat$) Enat$)
(declare-fun fun_app$h (Natural_natural_fun$ Natural$) Natural$)
(declare-fun fun_app$i (Nat_natural_fun$ Nat$) Natural$)
(declare-fun fun_app$j (Nat_enat_fun$ Nat$) Enat$)
(declare-fun infinity$ () Enat$)
(declare-fun of_bool$a (Bool) Nat$)
(declare-fun of_bool$b (Bool) Natural$)
(declare-fun rec_bool$ (Nat$ Nat$) Bool_nat_fun$)
(declare-fun the_enat$ (Enat$) Nat$)
(declare-fun enat_setp$ (Enat$) Bool)
(declare-fun size_bool$ () Bool_nat_fun$)
(declare-fun size_char$ (Char$) Nat$)
(declare-fun size_enat$ (Enat$) Nat$)
(declare-fun size_natural$ (Natural$) Nat$)
(assert (forall ((?v0 Enat_set$) (?v1 Enat$)) (! (= (fun_app$ (uu$ ?v0) ?v1) (member$ ?v1 ?v0)) :pattern ((fun_app$ (uu$ ?v0) ?v1)))))
(assert (not (and (= (= (scount$ p$ omega$) zero$) (= infinity$ zero$)) (=> (and (not (= (scount$ p$ omega$) zero$)) (not (= infinity$ zero$))) (or (exists ((?v0 A_stream$)) (and (= (epred$ (scount$ p$ omega$)) (scount$ p$ ?v0)) (and (= (epred$ infinity$) infinity$) (fun_app$a (alw$ (ev$ p$)) ?v0))) ) (= (epred$ (scount$ p$ omega$)) (epred$ infinity$)))))))
(assert (fun_app$a (ev$ p$) omega$))
(assert (fun_app$a (alw$ (ev$ p$)) omega$))
(assert (= (epred$ infinity$) infinity$))
(assert (forall ((?v0 A_stream_bool_fun$)) (= (ev$ (ev$ ?v0)) (ev$ ?v0)) ))
(assert (forall ((?v0 A_stream_bool_fun$)) (= (alw$ (alw$ ?v0)) (alw$ ?v0)) ))
(assert (= (epred$ zero$) zero$))
(assert (forall ((?v0 Enat$) (?v1 Enat$)) (=> (and (= (= ?v0 zero$) (= ?v1 zero$)) (=> (and (not (= ?v0 zero$)) (not (= ?v1 zero$))) (= (epred$ ?v0) (epred$ ?v1)))) (= ?v0 ?v1)) ))
(assert (forall ((?v0 Enat$) (?v1 Enat$)) (=> (and (not (= ?v0 zero$)) (not (= ?v1 zero$))) (= (= (epred$ ?v0) (epred$ ?v1)) (= ?v0 ?v1))) ))
(assert (forall ((?v0 Enat_enat_bool_fun_fun$) (?v1 Enat$) (?v2 Enat$)) (=> (and (fun_app$ (fun_app$b ?v0 ?v1) ?v2) (and (forall ((?v3 Enat$) (?v4 Enat$)) (=> (fun_app$ (fun_app$b ?v0 ?v3) ?v4) (= (= ?v3 zero$) (= ?v4 zero$))) ) (forall ((?v3 Enat$) (?v4 Enat$)) (=> (and (fun_app$ (fun_app$b ?v0 ?v3) ?v4) (and (not (= ?v3 zero$)) (not (= ?v4 zero$)))) (or (fun_app$ (fun_app$b ?v0 (epred$ ?v3)) (epred$ ?v4)) (= (epred$ ?v3) (epred$ ?v4)))) ))) (= ?v1 ?v2)) ))
(assert (forall ((?v0 Enat_enat_bool_fun_fun$) (?v1 Enat$) (?v2 Enat$)) (=> (and (fun_app$ (fun_app$b ?v0 ?v1) ?v2) (forall ((?v3 Enat$) (?v4 Enat$)) (=> (fun_app$ (fun_app$b ?v0 ?v3) ?v4) (and (= (= ?v3 zero$) (= ?v4 zero$)) (=> (and (not (= ?v3 zero$)) (not (= ?v4 zero$))) (or (fun_app$ (fun_app$b ?v0 (epred$ ?v3)) (epred$ ?v4)) (= (epred$ ?v3) (epred$ ?v4)))))) )) (= ?v1 ?v2)) ))
(assert (forall ((?v0 A_stream_bool_fun$) (?v1 A_stream$)) (=> (fun_app$a (ev$ (alw$ ?v0)) ?v1) (fun_app$a (alw$ (ev$ ?v0)) ?v1)) ))
(assert (forall ((?v0 A_stream_bool_fun$) (?v1 A_stream$) (?v2 A_stream_bool_fun$) (?v3 A_stream_bool_fun$)) (=> (and (fun_app$a (alw$ ?v0) ?v1) (forall ((?v4 A_stream$)) (=> (fun_app$a ?v0 ?v4) (= (fun_app$a ?v2 ?v4) (fun_app$a ?v3 ?v4))) )) (= (fun_app$a (ev$ ?v2) ?v1) (fun_app$a (ev$ ?v3) ?v1))) ))
(assert (not (= infinity$ zero$)))
(assert (forall ((?v0 Enat$)) (= (= zero$ ?v0) (= ?v0 zero$)) ))
(assert (forall ((?v0 Nat$)) (= (= zero$a ?v0) (= ?v0 zero$a)) ))
(assert (forall ((?v0 Natural$)) (= (= zero$b ?v0) (= ?v0 zero$b)) ))
(assert (forall ((?v0 Enat$)) (=> (and (=> (= ?v0 zero$) false) (=> (not (= ?v0 zero$)) false)) false) ))
(assert (forall ((?v0 A_stream_bool_fun$) (?v1 A_stream$)) (=> (fun_app$a (alw$ ?v0) ?v1) (fun_app$a ?v0 ?v1)) ))
(assert (forall ((?v0 A_stream_bool_fun$) (?v1 A_stream$)) (=> (fun_app$a (alw$ ?v0) ?v1) (fun_app$a (alw$ (alw$ ?v0)) ?v1)) ))
(assert (forall ((?v0 A_stream_bool_fun$) (?v1 A_stream$) (?v2 A_stream_bool_fun$)) (=> (and (fun_app$a (alw$ ?v0) ?v1) (forall ((?v3 A_stream$)) (=> (fun_app$a ?v0 ?v3) (fun_app$a ?v2 ?v3)) )) (fun_app$a (alw$ ?v2) ?v1)) ))
(assert (forall ((?v0 A_stream_bool_fun$) (?v1 A_stream$) (?v2 A_stream_bool_fun$) (?v3 A_stream_bool_fun$)) (=> (and (fun_app$a (alw$ ?v0) ?v1) (forall ((?v4 A_stream$)) (=> (fun_app$a ?v0 ?v4) (= (fun_app$a ?v2 ?v4) (fun_app$a ?v3 ?v4))) )) (= (fun_app$a (alw$ ?v2) ?v1) (fun_app$a (alw$ ?v3) ?v1))) ))
(assert (forall ((?v0 A_stream_bool_fun$) (?v1 A_stream$)) (=> (forall ((?v2 A_stream$)) (fun_app$a ?v0 ?v2) ) (fun_app$a (alw$ ?v0) ?v1)) ))
(assert (forall ((?v0 A_stream_bool_fun$) (?v1 A_stream$)) (=> (fun_app$a ?v0 ?v1) (fun_app$a (ev$ ?v0) ?v1)) ))
(assert (forall ((?v0 A_stream_bool_fun$) (?v1 A_stream$) (?v2 A_stream_bool_fun$)) (=> (and (fun_app$a (ev$ ?v0) ?v1) (forall ((?v3 A_stream$)) (=> (fun_app$a ?v0 ?v3) (fun_app$a ?v2 ?v3)) )) (fun_app$a (ev$ ?v2) ?v1)) ))
(assert (= (size_enat$ infinity$) zero$a))
(assert (= (size$ infinity$) zero$a))
(assert (= (epred$ one$) zero$))
(assert (= (the_enat$ zero$) zero$a))
(assert (forall ((?v0 Enat$)) (= (= one$ ?v0) (= ?v0 one$)) ))
(assert (forall ((?v0 Nat$)) (= (= one$a ?v0) (= ?v0 one$a)) ))
(assert (forall ((?v0 Natural$)) (= (= one$b ?v0) (= ?v0 one$b)) ))
(assert (not (= zero$ one$)))
(assert (not (= infinity$ one$)))
(assert (not (= zero$ one$)))
(assert (not (= zero$a one$a)))
(assert (not (= zero$b one$b)))
(assert (forall ((?v0 Enat$) (?v1 Enat$)) (=> (not (= (size$ ?v0) (size$ ?v1))) (not (= ?v0 ?v1))) ))
(assert (forall ((?v0 Literal$) (?v1 Literal$)) (=> (not (= (size$a ?v0) (size$a ?v1))) (not (= ?v0 ?v1))) ))
(assert (forall ((?v0 Nibble$) (?v1 Nibble$)) (=> (not (= (size$b ?v0) (size$b ?v1))) (not (= ?v0 ?v1))) ))
(assert (forall ((?v0 Char$) (?v1 Char$)) (=> (not (= (size$c ?v0) (size$c ?v1))) (not (= ?v0 ?v1))) ))
(assert (forall ((?v0 Bool) (?v1 Bool)) (=> (not (= (fun_app$c size$d ?v0) (fun_app$c size$d ?v1))) (not (= ?v0 ?v1))) ))
(assert (forall ((?v0 Nat$)) (! (= (size$ (enat$ ?v0)) zero$a) :pattern ((enat$ ?v0)))))
(assert (forall ((?v0 Nat$)) (! (= (size_enat$ (enat$ ?v0)) zero$a) :pattern ((enat$ ?v0)))))
(assert (forall ((?v0 Enat_bool_fun$) (?v1 Enat_bool_fun$)) (=> (forall ((?v2 Enat$)) (= (fun_app$ ?v0 ?v2) (fun_app$ ?v1 ?v2)) ) (= (collect$ ?v0) (collect$ ?v1))) ))
(assert (forall ((?v0 Enat_set$)) (= (collect$ (uu$ ?v0)) ?v0) ))
(assert (forall ((?v0 Enat$) (?v1 Enat_bool_fun$)) (= (member$ ?v0 (collect$ ?v1)) (fun_app$ ?v1 ?v0)) ))
(assert (= zero$a zero$a))
(assert (forall ((?v0 Nat$)) (=> (and (=> (= ?v0 zero$a) false) (=> (not (= ?v0 zero$a)) false)) false) ))
(assert (= (size$e zero$b) zero$a))
(assert (forall ((?v0 Nat$) (?v1 Nat$)) (= (= (enat$ ?v0) (enat$ ?v1)) (= ?v0 ?v1)) ))
(assert (forall ((?v0 Enat$) (?v1 Enat$)) (= (= (eSuc$ ?v0) (eSuc$ ?v1)) (= ?v0 ?v1)) ))
(assert (forall ((?v0 Enat$) (?v1 Enat$)) (= (= (eSuc$ ?v0) (eSuc$ ?v1)) (= ?v0 ?v1)) ))
(assert (forall ((?v0 Enat$)) (= (forall ((?v1 Nat$)) (not (= ?v0 (enat$ ?v1))) ) (= ?v0 infinity$)) ))
(assert (forall ((?v0 Enat$)) (= (not (= ?v0 infinity$)) (exists ((?v1 Nat$)) (= ?v0 (enat$ ?v1)) )) ))
(assert (= (eSuc$ infinity$) infinity$))
(assert (forall ((?v0 Enat$)) (=> (not (= ?v0 zero$)) (= (eSuc$ (epred$ ?v0)) ?v0)) ))
(assert (forall ((?v0 Enat$)) (=> (not (= ?v0 zero$)) (= (eSuc$ (epred$ ?v0)) ?v0)) ))
(assert (= one$ (enat$ one$a)))
(assert (forall ((?v0 Nat$)) (= (= one$ (enat$ ?v0)) (= ?v0 one$a)) ))
(assert (forall ((?v0 Nat$)) (= (= (enat$ ?v0) one$) (= ?v0 one$a)) ))
(assert (forall ((?v0 Enat$)) (not (= zero$ (eSuc$ ?v0))) ))
(assert (forall ((?v0 Enat$)) (not (= zero$ (eSuc$ ?v0))) ))
(assert (forall ((?v0 Enat$) (?v1 Enat$)) (=> (= ?v0 (eSuc$ ?v1)) (not (= ?v0 zero$))) ))
(assert (forall ((?v0 Enat$)) (=> (and (=> (= ?v0 zero$) false) (forall ((?v1 Enat$)) (=> (= ?v0 (eSuc$ ?v1)) false) )) false) ))
(assert (forall ((?v0 Enat$)) (=> (and (=> (= ?v0 zero$) false) (forall ((?v1 Enat$)) (=> (= ?v0 (eSuc$ ?v1)) false) )) false) ))
(assert (forall ((?v0 Enat$)) (= (not (= ?v0 zero$)) (exists ((?v1 Enat$)) (= ?v0 (eSuc$ ?v1)) )) ))
(assert (forall ((?v0 Enat$)) (= (= infinity$ (eSuc$ ?v0)) (= ?v0 infinity$)) ))
(assert (forall ((?v0 Enat$)) (= (= (eSuc$ ?v0) infinity$) (= ?v0 infinity$)) ))
(assert (forall ((?v0 Nat$)) (not (= infinity$ (enat$ ?v0))) ))
(assert (forall ((?v0 Nat$)) (not (= (enat$ ?v0) infinity$)) ))
(assert (forall ((?v0 Enat$) (?v1 Enat$) (?v2 Enat$)) (=> (and (forall ((?v3 Nat$) (?v4 Nat$) (?v5 Nat$)) (=> (and (= ?v0 (enat$ ?v3)) (and (= ?v1 (enat$ ?v4)) (= ?v2 (enat$ ?v5)))) false) ) (and (forall ((?v3 Nat$) (?v4 Nat$)) (=> (and (= ?v0 (enat$ ?v3)) (and (= ?v1 (enat$ ?v4)) (= ?v2 infinity$))) false) ) (and (forall ((?v3 Nat$) (?v4 Nat$)) (=> (and (= ?v0 (enat$ ?v3)) (and (= ?v1 infinity$) (= ?v2 (enat$ ?v4)))) false) ) (and (forall ((?v3 Nat$)) (=> (and (= ?v0 (enat$ ?v3)) (and (= ?v1 infinity$) (= ?v2 infinity$))) false) ) (and (forall ((?v3 Nat$) (?v4 Nat$)) (=> (and (= ?v0 infinity$) (and (= ?v1 (enat$ ?v3)) (= ?v2 (enat$ ?v4)))) false) ) (and (forall ((?v3 Nat$)) (=> (and (= ?v0 infinity$) (and (= ?v1 (enat$ ?v3)) (= ?v2 infinity$))) false) ) (and (forall ((?v3 Nat$)) (=> (and (= ?v0 infinity$) (and (= ?v1 infinity$) (= ?v2 (enat$ ?v3)))) false) ) (=> (and (= ?v0 infinity$) (and (= ?v1 infinity$) (= ?v2 infinity$))) false)))))))) false) ))
(assert (forall ((?v0 Enat$) (?v1 Enat$)) (=> (and (forall ((?v2 Nat$) (?v3 Nat$)) (=> (and (= ?v0 (enat$ ?v2)) (= ?v1 (enat$ ?v3))) false) ) (and (forall ((?v2 Nat$)) (=> (and (= ?v0 (enat$ ?v2)) (= ?v1 infinity$)) false) ) (and (forall ((?v2 Nat$)) (=> (and (= ?v0 infinity$) (= ?v1 (enat$ ?v2))) false) ) (=> (and (= ?v0 infinity$) (= ?v1 infinity$)) false)))) false) ))
(assert (forall ((?v0 Enat$)) (=> (and (forall ((?v1 Nat$)) (=> (= ?v0 (enat$ ?v1)) false) ) (=> (= ?v0 infinity$) false)) false) ))
(assert (forall ((?v0 Enat$)) (= (epred$ (eSuc$ ?v0)) ?v0) ))
(assert (forall ((?v0 Enat$)) (= (epred$ (eSuc$ ?v0)) ?v0) ))
(assert (forall ((?v0 Nat$)) (! (= (the_enat$ (enat$ ?v0)) ?v0) :pattern ((enat$ ?v0)))))
(assert (forall ((?v0 Nat$)) (= (= (enat$ ?v0) zero$) (= ?v0 zero$a)) ))
(assert (forall ((?v0 Nat$)) (= (= zero$ (enat$ ?v0)) (= ?v0 zero$a)) ))
(assert (= zero$ (enat$ zero$a)))
(assert (forall ((?v0 Enat$)) (=> (and (=> (= ?v0 zero$) false) (=> (= ?v0 (eSuc$ (epred$ ?v0))) false)) false) ))
(assert (= one$ (eSuc$ zero$)))
(assert (forall ((?v0 Enat$)) (=> (not (= ?v0 infinity$)) (= (enat$ (the_enat$ ?v0)) ?v0)) ))
(assert (forall ((?v0 Nibble$)) (! (= (size$b ?v0) zero$a) :pattern ((size$b ?v0)))))
(assert (= (fun_app$c size$d false) zero$a))
(assert (= (fun_app$c size$d true) zero$a))
(assert (forall ((?v0 Char$)) (! (= (size$c ?v0) zero$a) :pattern ((size$c ?v0)))))
(assert (= (size_natural$ zero$b) zero$a))
(assert (forall ((?v0 Nat$)) (! (= (times$ infinity$ (enat$ ?v0)) (ite (= ?v0 zero$a) zero$ infinity$)) :pattern ((enat$ ?v0)))))
(assert (forall ((?v0 Nat$)) (! (= (times$ (enat$ ?v0) infinity$) (ite (= ?v0 zero$a) zero$ infinity$)) :pattern ((enat$ ?v0)))))
(assert (forall ((?v0 Enat_bool_fun$) (?v1 Bool)) (= (fun_app$ ?v0 (of_bool$ ?v1)) (and (=> ?v1 (fun_app$ ?v0 one$)) (=> (not ?v1) (fun_app$ ?v0 zero$)))) ))
(assert (forall ((?v0 Nat_bool_fun$) (?v1 Bool)) (= (fun_app$d ?v0 (of_bool$a ?v1)) (and (=> ?v1 (fun_app$d ?v0 one$a)) (=> (not ?v1) (fun_app$d ?v0 zero$a)))) ))
(assert (forall ((?v0 Natural_bool_fun$) (?v1 Bool)) (= (fun_app$e ?v0 (of_bool$b ?v1)) (and (=> ?v1 (fun_app$e ?v0 one$b)) (=> (not ?v1) (fun_app$e ?v0 zero$b)))) ))
(assert (forall ((?v0 Natural$) (?v1 Natural$) (?v2 Natural$)) (= (= (times$a ?v0 ?v1) (times$a ?v2 ?v1)) (or (= ?v1 zero$b) (= ?v0 ?v2))) ))
(assert (forall ((?v0 Nat$) (?v1 Nat$) (?v2 Nat$)) (= (= (fun_app$f (times$b ?v0) ?v1) (fun_app$f (times$b ?v2) ?v1)) (or (= ?v1 zero$a) (= ?v0 ?v2))) ))
(assert (forall ((?v0 Natural$) (?v1 Natural$) (?v2 Natural$)) (= (= (times$a ?v0 ?v1) (times$a ?v0 ?v2)) (or (= ?v0 zero$b) (= ?v1 ?v2))) ))
(assert (forall ((?v0 Nat$) (?v1 Nat$) (?v2 Nat$)) (= (= (fun_app$f (times$b ?v0) ?v1) (fun_app$f (times$b ?v0) ?v2)) (or (= ?v0 zero$a) (= ?v1 ?v2))) ))
(assert (forall ((?v0 Natural$) (?v1 Natural$)) (= (= (times$a ?v0 ?v1) zero$b) (or (= ?v0 zero$b) (= ?v1 zero$b))) ))
(assert (forall ((?v0 Nat$) (?v1 Nat$)) (= (= (fun_app$f (times$b ?v0) ?v1) zero$a) (or (= ?v0 zero$a) (= ?v1 zero$a))) ))
(assert (forall ((?v0 Natural$)) (= (times$a ?v0 zero$b) zero$b) ))
(assert (forall ((?v0 Enat$)) (= (times$ ?v0 zero$) zero$) ))
(assert (forall ((?v0 Nat$)) (= (fun_app$f (times$b ?v0) zero$a) zero$a) ))
(assert (forall ((?v0 Natural$)) (= (times$a zero$b ?v0) zero$b) ))
(assert (forall ((?v0 Enat$)) (= (times$ zero$ ?v0) zero$) ))
(assert (forall ((?v0 Nat$)) (= (fun_app$f (times$b zero$a) ?v0) zero$a) ))
(assert (forall ((?v0 Natural$)) (= (times$a ?v0 one$b) ?v0) ))
(assert (forall ((?v0 Enat$)) (= (times$ ?v0 one$) ?v0) ))
(assert (forall ((?v0 Nat$)) (= (fun_app$f (times$b ?v0) one$a) ?v0) ))
(assert (forall ((?v0 Natural$)) (= (times$a one$b ?v0) ?v0) ))
(assert (forall ((?v0 Enat$)) (= (times$ one$ ?v0) ?v0) ))
(assert (forall ((?v0 Nat$)) (= (fun_app$f (times$b one$a) ?v0) ?v0) ))
(assert (= (of_bool$ false) zero$))
(assert (= (of_bool$a false) zero$a))
(assert (= (of_bool$b false) zero$b))
(assert (forall ((?v0 Enat$) (?v1 Enat$)) (= (= (times$ ?v0 ?v1) zero$) (or (= ?v0 zero$) (= ?v1 zero$))) ))
(assert (= (of_bool$ true) one$))
(assert (= (of_bool$a true) one$a))
(assert (= (of_bool$b true) one$b))
(assert (= (times$ infinity$ infinity$) infinity$))
(assert (= one$a one$a))
(assert (forall ((?v0 Bool) (?v1 Bool)) (= (= (of_bool$b ?v0) (of_bool$b ?v1)) (= ?v0 ?v1)) ))
(assert (forall ((?v0 Bool) (?v1 Bool)) (= (= (of_bool$a ?v0) (of_bool$a ?v1)) (= ?v0 ?v1)) ))
(assert (forall ((?v0 Bool) (?v1 Bool)) (= (= (of_bool$ ?v0) (of_bool$ ?v1)) (= ?v0 ?v1)) ))
(assert (forall ((?v0 Natural$) (?v1 Natural$) (?v2 Natural$)) (= (times$a (times$a ?v0 ?v1) ?v2) (times$a ?v0 (times$a ?v1 ?v2))) ))
(assert (forall ((?v0 Enat$) (?v1 Enat$) (?v2 Enat$)) (= (times$ (times$ ?v0 ?v1) ?v2) (times$ ?v0 (times$ ?v1 ?v2))) ))
(assert (forall ((?v0 Nat$) (?v1 Nat$) (?v2 Nat$)) (= (fun_app$f (times$b (fun_app$f (times$b ?v0) ?v1)) ?v2) (fun_app$f (times$b ?v0) (fun_app$f (times$b ?v1) ?v2))) ))
(assert (forall ((?v0 Natural$) (?v1 Natural$) (?v2 Natural$)) (= (times$a (times$a ?v0 ?v1) ?v2) (times$a ?v0 (times$a ?v1 ?v2))) ))
(assert (forall ((?v0 Enat$) (?v1 Enat$) (?v2 Enat$)) (= (times$ (times$ ?v0 ?v1) ?v2) (times$ ?v0 (times$ ?v1 ?v2))) ))
(assert (forall ((?v0 Nat$) (?v1 Nat$) (?v2 Nat$)) (= (fun_app$f (times$b (fun_app$f (times$b ?v0) ?v1)) ?v2) (fun_app$f (times$b ?v0) (fun_app$f (times$b ?v1) ?v2))) ))
(assert (forall ((?v0 Natural$) (?v1 Natural$) (?v2 Natural$)) (= (times$a ?v0 (times$a ?v1 ?v2)) (times$a ?v1 (times$a ?v0 ?v2))) ))
(assert (forall ((?v0 Enat$) (?v1 Enat$) (?v2 Enat$)) (= (times$ ?v0 (times$ ?v1 ?v2)) (times$ ?v1 (times$ ?v0 ?v2))) ))
(assert (forall ((?v0 Nat$) (?v1 Nat$) (?v2 Nat$)) (= (fun_app$f (times$b ?v0) (fun_app$f (times$b ?v1) ?v2)) (fun_app$f (times$b ?v1) (fun_app$f (times$b ?v0) ?v2))) ))
(assert (forall ((?v0 Natural$) (?v1 Natural$)) (= (times$a ?v0 ?v1) (times$a ?v1 ?v0)) ))
(assert (forall ((?v0 Enat$) (?v1 Enat$)) (= (times$ ?v0 ?v1) (times$ ?v1 ?v0)) ))
(assert (forall ((?v0 Nat$) (?v1 Nat$)) (= (fun_app$f (times$b ?v0) ?v1) (fun_app$f (times$b ?v1) ?v0)) ))
(assert (forall ((?v0 Natural$) (?v1 Natural$) (?v2 Natural$)) (=> (not (= ?v0 zero$b)) (= (= (times$a ?v0 ?v1) (times$a ?v0 ?v2)) (= ?v1 ?v2))) ))
(assert (forall ((?v0 Nat$) (?v1 Nat$) (?v2 Nat$)) (=> (not (= ?v0 zero$a)) (= (= (fun_app$f (times$b ?v0) ?v1) (fun_app$f (times$b ?v0) ?v2)) (= ?v1 ?v2))) ))
(assert (forall ((?v0 Natural$) (?v1 Natural$) (?v2 Natural$)) (=> (not (= ?v0 zero$b)) (= (= (times$a ?v1 ?v0) (times$a ?v2 ?v0)) (= ?v1 ?v2))) ))
(assert (forall ((?v0 Nat$) (?v1 Nat$) (?v2 Nat$)) (=> (not (= ?v0 zero$a)) (= (= (fun_app$f (times$b ?v1) ?v0) (fun_app$f (times$b ?v2) ?v0)) (= ?v1 ?v2))) ))
(assert (forall ((?v0 Natural$) (?v1 Natural$)) (=> (and (not (= ?v0 zero$b)) (not (= ?v1 zero$b))) (not (= (times$a ?v0 ?v1) zero$b))) ))
(assert (forall ((?v0 Nat$) (?v1 Nat$)) (=> (and (not (= ?v0 zero$a)) (not (= ?v1 zero$a))) (not (= (fun_app$f (times$b ?v0) ?v1) zero$a))) ))
(assert (forall ((?v0 Natural$) (?v1 Natural$)) (=> (not (= (times$a ?v0 ?v1) zero$b)) (and (not (= ?v0 zero$b)) (not (= ?v1 zero$b)))) ))
(assert (forall ((?v0 Enat$) (?v1 Enat$)) (=> (not (= (times$ ?v0 ?v1) zero$)) (and (not (= ?v0 zero$)) (not (= ?v1 zero$)))) ))
(assert (forall ((?v0 Nat$) (?v1 Nat$)) (=> (not (= (fun_app$f (times$b ?v0) ?v1) zero$a)) (and (not (= ?v0 zero$a)) (not (= ?v1 zero$a)))) ))
(assert (forall ((?v0 Natural$) (?v1 Natural$)) (=> (= (times$a ?v0 ?v1) zero$b) (or (= ?v0 zero$b) (= ?v1 zero$b))) ))
(assert (forall ((?v0 Nat$) (?v1 Nat$)) (=> (= (fun_app$f (times$b ?v0) ?v1) zero$a) (or (= ?v0 zero$a) (= ?v1 zero$a))) ))
(assert (forall ((?v0 Natural$)) (= (times$a ?v0 one$b) ?v0) ))
(assert (forall ((?v0 Enat$)) (= (times$ ?v0 one$) ?v0) ))
(assert (forall ((?v0 Nat$)) (= (fun_app$f (times$b ?v0) one$a) ?v0) ))
(assert (forall ((?v0 Natural$)) (= (times$a one$b ?v0) ?v0) ))
(assert (forall ((?v0 Enat$)) (= (times$ one$ ?v0) ?v0) ))
(assert (forall ((?v0 Nat$)) (= (fun_app$f (times$b one$a) ?v0) ?v0) ))
(assert (forall ((?v0 Enat$) (?v1 Enat$)) (= (= (times$ ?v0 ?v1) infinity$) (or (and (= ?v0 infinity$) (not (= ?v1 zero$))) (and (= ?v1 infinity$) (not (= ?v0 zero$))))) ))
(assert (forall ((?v0 Literal$)) (! (= (size$a ?v0) zero$a) :pattern ((size$a ?v0)))))
(assert (forall ((?v0 Bool)) (! (= (fun_app$c size$d ?v0) zero$a) :pattern ((fun_app$c size$d ?v0)))))
(assert (forall ((?v0 Enat_bool_fun$) (?v1 Bool)) (= (fun_app$ ?v0 (of_bool$ ?v1)) (not (or (and ?v1 (not (fun_app$ ?v0 one$))) (and (not ?v1) (not (fun_app$ ?v0 zero$)))))) ))
(assert (forall ((?v0 Nat_bool_fun$) (?v1 Bool)) (= (fun_app$d ?v0 (of_bool$a ?v1)) (not (or (and ?v1 (not (fun_app$d ?v0 one$a))) (and (not ?v1) (not (fun_app$d ?v0 zero$a)))))) ))
(assert (forall ((?v0 Natural_bool_fun$) (?v1 Bool)) (= (fun_app$e ?v0 (of_bool$b ?v1)) (not (or (and ?v1 (not (fun_app$e ?v0 one$b))) (and (not ?v1) (not (fun_app$e ?v0 zero$b)))))) ))
(assert (forall ((?v0 Bool)) (! (= (of_bool$ ?v0) (ite ?v0 one$ zero$)) :pattern ((of_bool$ ?v0)))))
(assert (forall ((?v0 Bool)) (! (= (of_bool$a ?v0) (ite ?v0 one$a zero$a)) :pattern ((of_bool$a ?v0)))))
(assert (forall ((?v0 Bool)) (! (= (of_bool$b ?v0) (ite ?v0 one$b zero$b)) :pattern ((of_bool$b ?v0)))))
(assert (forall ((?v0 Char$)) (! (= (size_char$ ?v0) zero$a) :pattern ((size_char$ ?v0)))))
(assert (= (fun_app$c size_bool$ true) zero$a))
(assert (= (fun_app$c size_bool$ false) zero$a))
(assert (= size$d (rec_bool$ zero$a zero$a)))
(assert (forall ((?v0 Nat$)) (! (= (fun_app$f (times$b ?v0) zero$a) zero$a) :pattern ((times$b ?v0)))))
(assert (forall ((?v0 Nat$) (?v1 Nat$)) (= (= (fun_app$f (times$b ?v0) ?v1) zero$a) (or (= ?v0 zero$a) (= ?v1 zero$a))) ))
(assert (forall ((?v0 Nat$) (?v1 Nat$) (?v2 Nat$)) (= (= (fun_app$f (times$b ?v0) ?v1) (fun_app$f (times$b ?v0) ?v2)) (or (= ?v1 ?v2) (= ?v0 zero$a))) ))
(assert (forall ((?v0 Nat$) (?v1 Nat$) (?v2 Nat$)) (= (= (fun_app$f (times$b ?v0) ?v1) (fun_app$f (times$b ?v2) ?v1)) (or (= ?v0 ?v2) (= ?v1 zero$a))) ))
(assert (forall ((?v0 Nat$) (?v1 Nat$)) (= (= one$a (fun_app$f (times$b ?v0) ?v1)) (and (= ?v0 one$a) (= ?v1 one$a))) ))
(assert (forall ((?v0 Nat$) (?v1 Nat$)) (= (= (fun_app$f (times$b ?v0) ?v1) one$a) (and (= ?v0 one$a) (= ?v1 one$a))) ))
(assert (forall ((?v0 Nat$) (?v1 Nat$)) (! (= (times$ (enat$ ?v0) (enat$ ?v1)) (enat$ (fun_app$f (times$b ?v0) ?v1))) :pattern ((times$ (enat$ ?v0) (enat$ ?v1))))))
(assert (forall ((?v0 Nat$)) (! (= (fun_app$f (times$b zero$a) ?v0) zero$a) :pattern ((fun_app$f (times$b zero$a) ?v0)))))
(assert (forall ((?v0 Nat$)) (= (fun_app$f (times$b ?v0) one$a) ?v0) ))
(assert (forall ((?v0 Nat$)) (= (fun_app$f (times$b one$a) ?v0) ?v0) ))
(assert (= size_bool$ (rec_bool$ zero$a zero$a)))
(assert (forall ((?v0 Nat$) (?v1 Nat$)) (=> (= ?v0 (fun_app$f (times$b ?v0) ?v1)) (or (= ?v1 one$a) (= ?v0 zero$a))) ))
(assert (forall ((?v0 Nat$) (?v1 Nat$)) (! (= (fun_app$c (rec_bool$ ?v0 ?v1) true) ?v0) :pattern ((rec_bool$ ?v0 ?v1)))))
(assert (forall ((?v0 Nat$) (?v1 Nat$)) (! (= (fun_app$c (rec_bool$ ?v0 ?v1) false) ?v1) :pattern ((rec_bool$ ?v0 ?v1)))))
(assert (= (size$b nibbleA$) zero$a))
(assert (forall ((?v0 Nat$) (?v1 Nat$) (?v2 Nat$)) (= (= (fun_app$f (times$b ?v0) ?v1) (fun_app$f (times$b ?v0) ?v2)) (or (= ?v0 zero$a) (= ?v1 ?v2))) ))
(assert (forall ((?v0 Enat$)) (= (member$ ?v0 enat_set$) (or (= ?v0 zero$) (exists ((?v1 Enat$)) (and (= ?v0 (eSuc$ ?v1)) (member$ ?v1 enat_set$)) ))) ))
(assert (forall ((?v0 Enat$)) (=> (and (member$ ?v0 enat_set$) (and (=> (= ?v0 zero$) false) (forall ((?v1 Enat$)) (=> (and (= ?v0 (eSuc$ ?v1)) (member$ ?v1 enat_set$)) false) ))) false) ))
(assert (forall ((?v0 Enat_bool_fun$) (?v1 Enat$)) (=> (and (fun_app$ ?v0 ?v1) (forall ((?v2 Enat$)) (=> (fun_app$ ?v0 ?v2) (or (= ?v2 zero$) (exists ((?v3 Enat$)) (and (= ?v2 (eSuc$ ?v3)) (or (fun_app$ ?v0 ?v3) (member$ ?v3 enat_set$))) ))) )) (member$ ?v1 enat_set$)) ))
(assert (member$ zero$ enat_set$))
(assert (forall ((?v0 Enat$)) (=> (member$ ?v0 enat_set$) (member$ (eSuc$ ?v0) enat_set$)) ))
(assert (forall ((?v0 Nibble$) (?v1 Nibble$)) (! (= (size$c (char$ ?v0 ?v1)) zero$a) :pattern ((char$ ?v0 ?v1)))))
(assert (forall ((?v0 Enat_bool_fun$) (?v1 Enat$)) (=> (and (fun_app$ ?v0 ?v1) (forall ((?v2 Enat$)) (=> (fun_app$ ?v0 ?v2) (or (= ?v2 zero$) (exists ((?v3 Enat$)) (and (= ?v2 (eSuc$ ?v3)) (or (fun_app$ ?v0 ?v3) (enat_setp$ ?v3))) ))) )) (enat_setp$ ?v1)) ))
(assert (forall ((?v0 Enat$)) (=> (and (enat_setp$ ?v0) (and (=> (= ?v0 zero$) false) (forall ((?v1 Enat$)) (=> (and (= ?v0 (eSuc$ ?v1)) (enat_setp$ ?v1)) false) ))) false) ))
(assert (forall ((?v0 Nibble$) (?v1 Nibble$) (?v2 Nibble$) (?v3 Nibble$)) (= (= (char$ ?v0 ?v1) (char$ ?v2 ?v3)) (and (= ?v0 ?v2) (= ?v1 ?v3))) ))
(assert (forall ((?v0 Char$)) (=> (forall ((?v1 Nibble$) (?v2 Nibble$)) (=> (= ?v0 (char$ ?v1 ?v2)) false) ) false) ))
(assert (enat_setp$ zero$))
(assert (forall ((?v0 Enat$)) (=> (enat_setp$ ?v0) (enat_setp$ (eSuc$ ?v0))) ))
(assert (forall ((?v0 Enat$)) (! (= (enat_setp$ ?v0) (member$ ?v0 enat_set$)) :pattern ((enat_setp$ ?v0)))))
(assert (forall ((?v0 Nibble$) (?v1 Nibble$)) (! (= (size_char$ (char$ ?v0 ?v1)) zero$a) :pattern ((char$ ?v0 ?v1)))))
(assert (forall ((?v0 Enat$)) (= (enat_setp$ ?v0) (or (= ?v0 zero$) (exists ((?v1 Enat$)) (and (= ?v0 (eSuc$ ?v1)) (enat_setp$ ?v1)) ))) ))
(assert (forall ((?v0 Nat$)) (= (epred$ (enat$ ?v0)) (enat$ (fun_app$f (minus$ ?v0) one$a))) ))
(assert (forall ((?v0 Nat$)) (! (= (fun_app$g (minus$a (enat$ ?v0)) infinity$) zero$) :pattern ((enat$ ?v0)))))
(assert (forall ((?v0 Natural$) (?v1 Natural$)) (= (= (suc$ ?v0) (suc$ ?v1)) (= ?v0 ?v1)) ))
(assert (forall ((?v0 Nat$)) (= (fun_app$f (minus$ zero$a) ?v0) zero$a) ))
(assert (forall ((?v0 Natural$)) (= (fun_app$h (minus$b zero$b) ?v0) zero$b) ))
(assert (forall ((?v0 Nat$)) (! (= (fun_app$f (minus$ ?v0) ?v0) zero$a) :pattern ((minus$ ?v0)))))
(assert (forall ((?v0 Natural$)) (! (= (fun_app$h (minus$b ?v0) ?v0) zero$b) :pattern ((minus$b ?v0)))))
(assert (forall ((?v0 Nat$)) (= (fun_app$f (minus$ ?v0) zero$a) ?v0) ))
(assert (forall ((?v0 Natural$)) (= (fun_app$h (minus$b ?v0) zero$b) ?v0) ))
(assert (forall ((?v0 Nat$)) (! (= (fun_app$f (minus$ zero$a) ?v0) zero$a) :pattern ((fun_app$f (minus$ zero$a) ?v0)))))
(assert (forall ((?v0 Nat$)) (! (= (fun_app$f (minus$ ?v0) ?v0) zero$a) :pattern ((minus$ ?v0)))))
(assert (forall ((?v0 Enat$)) (= (fun_app$g (minus$a zero$) ?v0) zero$) ))
(assert (forall ((?v0 Enat$)) (= (fun_app$g (minus$a ?v0) zero$) ?v0) ))
(assert (forall ((?v0 Enat$) (?v1 Enat$)) (= (fun_app$g (minus$a (eSuc$ ?v0)) (eSuc$ ?v1)) (fun_app$g (minus$a ?v0) ?v1)) ))
(assert (forall ((?v0 Enat$)) (! (= (fun_app$g (minus$a infinity$) ?v0) infinity$) :pattern ((fun_app$g (minus$a infinity$) ?v0)))))
(assert (forall ((?v0 Enat$)) (! (= (fun_app$g (minus$a ?v0) (enat$ zero$a)) ?v0) :pattern ((minus$a ?v0)))))
(assert (forall ((?v0 Enat$)) (! (= (fun_app$g (minus$a (enat$ zero$a)) ?v0) (enat$ zero$a)) :pattern ((fun_app$g (minus$a (enat$ zero$a)) ?v0)))))
(assert (forall ((?v0 Nat$) (?v1 Nat$)) (! (= (fun_app$g (minus$a (enat$ ?v0)) (enat$ ?v1)) (enat$ (fun_app$f (minus$ ?v0) ?v1))) :pattern ((fun_app$g (minus$a (enat$ ?v0)) (enat$ ?v1))))))
(assert (forall ((?v0 Enat$)) (! (=> (not (= ?v0 infinity$)) (= (fun_app$g (minus$a ?v0) ?v0) zero$)) :pattern ((minus$a ?v0)))))
(assert (forall ((?v0 Enat$) (?v1 Enat$)) (=> (not (= ?v0 zero$)) (= (fun_app$g (minus$a (epred$ ?v1)) (epred$ ?v0)) (fun_app$g (minus$a ?v1) ?v0))) ))
(assert (forall ((?v0 Enat$)) (= (fun_app$g (minus$a (eSuc$ ?v0)) one$) ?v0) ))
(assert (forall ((?v0 Nat$) (?v1 Nat$) (?v2 Nat$)) (= (fun_app$f (minus$ (fun_app$f (minus$ ?v0) ?v1)) ?v2) (fun_app$f (minus$ (fun_app$f (minus$ ?v0) ?v2)) ?v1)) ))
(assert (forall ((?v0 Nat$) (?v1 Nat$) (?v2 Nat$)) (= (fun_app$f (minus$ (fun_app$f (minus$ ?v0) ?v1)) ?v2) (fun_app$f (minus$ (fun_app$f (minus$ ?v0) ?v2)) ?v1)) ))
(assert (forall ((?v0 Natural$) (?v1 Natural$) (?v2 Natural$)) (= (fun_app$h (minus$b (fun_app$h (minus$b ?v0) ?v1)) ?v2) (fun_app$h (minus$b (fun_app$h (minus$b ?v0) ?v2)) ?v1)) ))
(assert (forall ((?v0 Nat$)) (! (= (fun_app$f (minus$ ?v0) zero$a) ?v0) :pattern ((minus$ ?v0)))))
(assert (forall ((?v0 Nat$) (?v1 Nat$)) (=> (and (= (fun_app$f (minus$ ?v0) ?v1) zero$a) (= (fun_app$f (minus$ ?v1) ?v0) zero$a)) (= ?v0 ?v1)) ))
(assert (forall ((?v0 Nat$) (?v1 Nat$) (?v2 Nat$)) (= (fun_app$f (times$b ?v0) (fun_app$f (minus$ ?v1) ?v2)) (fun_app$f (minus$ (fun_app$f (times$b ?v0) ?v1)) (fun_app$f (times$b ?v0) ?v2))) ))
(assert (forall ((?v0 Natural$) (?v1 Natural$) (?v2 Natural$)) (= (times$a ?v0 (fun_app$h (minus$b ?v1) ?v2)) (fun_app$h (minus$b (times$a ?v0 ?v1)) (times$a ?v0 ?v2))) ))
(assert (forall ((?v0 Nat$) (?v1 Nat$) (?v2 Nat$)) (= (fun_app$f (times$b ?v0) (fun_app$f (minus$ ?v1) ?v2)) (fun_app$f (minus$ (fun_app$f (times$b ?v0) ?v1)) (fun_app$f (times$b ?v0) ?v2))) ))
(assert (forall ((?v0 Nat$) (?v1 Nat$) (?v2 Nat$)) (= (fun_app$f (times$b (fun_app$f (minus$ ?v0) ?v1)) ?v2) (fun_app$f (minus$ (fun_app$f (times$b ?v0) ?v2)) (fun_app$f (times$b ?v1) ?v2))) ))
(assert (forall ((?v0 Natural$) (?v1 Natural$) (?v2 Natural$)) (= (times$a (fun_app$h (minus$b ?v0) ?v1) ?v2) (fun_app$h (minus$b (times$a ?v0 ?v2)) (times$a ?v1 ?v2))) ))
(assert (forall ((?v0 Nat$) (?v1 Nat$) (?v2 Nat$)) (= (fun_app$f (times$b (fun_app$f (minus$ ?v0) ?v1)) ?v2) (fun_app$f (minus$ (fun_app$f (times$b ?v0) ?v2)) (fun_app$f (times$b ?v1) ?v2))) ))
(assert (forall ((?v0 Natural$)) (=> (and (=> (= ?v0 zero$b) false) (forall ((?v1 Natural$)) (=> (= ?v0 (suc$ ?v1)) false) )) false) ))
(assert (forall ((?v0 Natural$)) (not (= zero$b (suc$ ?v0))) ))
(assert (forall ((?v0 Natural$)) (not (= (suc$ ?v0) zero$b)) ))
(assert (forall ((?v0 Enat$)) (! (= (epred$ ?v0) (fun_app$g (minus$a ?v0) one$)) :pattern ((epred$ ?v0)))))
(assert (= (fun_app$h (minus$b zero$b) one$b) zero$b))
(assert (forall ((?v0 Natural$)) (= (fun_app$h (minus$b (suc$ ?v0)) one$b) ?v0) ))
(assert (forall ((?v0 Natural$) (?v1 Nat$)) (= (fun_app$i (power$ ?v0) ?v1) (ite (= ?v1 zero$a) one$b (times$a ?v0 (fun_app$i (power$ ?v0) (fun_app$f (minus$ ?v1) one$a))))) ))
(assert (forall ((?v0 Enat$) (?v1 Nat$)) (= (fun_app$j (power$a ?v0) ?v1) (ite (= ?v1 zero$a) one$ (times$ ?v0 (fun_app$j (power$a ?v0) (fun_app$f (minus$ ?v1) one$a))))) ))
(assert (forall ((?v0 Nat$) (?v1 Nat$)) (= (fun_app$f (power$b ?v0) ?v1) (ite (= ?v1 zero$a) one$a (fun_app$f (times$b ?v0) (fun_app$f (power$b ?v0) (fun_app$f (minus$ ?v1) one$a))))) ))
(assert (forall ((?v0 Nat$)) (= (fun_app$f (power$b ?v0) one$a) ?v0) ))
(assert (forall ((?v0 Enat$)) (= (fun_app$j (power$a ?v0) one$a) ?v0) ))
(assert (forall ((?v0 Natural$)) (= (fun_app$i (power$ ?v0) one$a) ?v0) ))
(assert (forall ((?v0 Nat$)) (= (fun_app$j (power$a one$) ?v0) one$) ))
(assert (forall ((?v0 Nat$)) (= (fun_app$f (power$b one$a) ?v0) one$a) ))
(assert (forall ((?v0 Nat$)) (= (fun_app$i (power$ one$b) ?v0) one$b) ))
(assert (forall ((?v0 Nat$) (?v1 Nat$)) (=> (not (= ?v0 zero$a)) (not (= (fun_app$f (power$b ?v0) ?v1) zero$a))) ))
(assert (forall ((?v0 Natural$) (?v1 Nat$)) (=> (not (= ?v0 zero$b)) (not (= (fun_app$i (power$ ?v0) ?v1) zero$b))) ))
(assert (forall ((?v0 Natural$) (?v1 Natural$) (?v2 Nat$)) (= (fun_app$i (power$ (times$a ?v0 ?v1)) ?v2) (times$a (fun_app$i (power$ ?v0) ?v2) (fun_app$i (power$ ?v1) ?v2))) ))
(assert (forall ((?v0 Enat$) (?v1 Enat$) (?v2 Nat$)) (= (fun_app$j (power$a (times$ ?v0 ?v1)) ?v2) (times$ (fun_app$j (power$a ?v0) ?v2) (fun_app$j (power$a ?v1) ?v2))) ))
(assert (forall ((?v0 Nat$) (?v1 Nat$) (?v2 Nat$)) (= (fun_app$f (power$b (fun_app$f (times$b ?v0) ?v1)) ?v2) (fun_app$f (times$b (fun_app$f (power$b ?v0) ?v2)) (fun_app$f (power$b ?v1) ?v2))) ))
(assert (forall ((?v0 Natural$) (?v1 Nat$)) (= (times$a (fun_app$i (power$ ?v0) ?v1) ?v0) (times$a ?v0 (fun_app$i (power$ ?v0) ?v1))) ))
(assert (forall ((?v0 Enat$) (?v1 Nat$)) (= (times$ (fun_app$j (power$a ?v0) ?v1) ?v0) (times$ ?v0 (fun_app$j (power$a ?v0) ?v1))) ))
(assert (forall ((?v0 Nat$) (?v1 Nat$)) (= (fun_app$f (times$b (fun_app$f (power$b ?v0) ?v1)) ?v0) (fun_app$f (times$b ?v0) (fun_app$f (power$b ?v0) ?v1))) ))
(assert (forall ((?v0 Natural$) (?v1 Natural$) (?v2 Nat$)) (=> (= (times$a ?v0 ?v1) (times$a ?v1 ?v0)) (= (times$a (fun_app$i (power$ ?v0) ?v2) ?v1) (times$a ?v1 (fun_app$i (power$ ?v0) ?v2)))) ))
(assert (forall ((?v0 Enat$) (?v1 Enat$) (?v2 Nat$)) (=> (= (times$ ?v0 ?v1) (times$ ?v1 ?v0)) (= (times$ (fun_app$j (power$a ?v0) ?v2) ?v1) (times$ ?v1 (fun_app$j (power$a ?v0) ?v2)))) ))
(assert (forall ((?v0 Nat$) (?v1 Nat$) (?v2 Nat$)) (=> (= (fun_app$f (times$b ?v0) ?v1) (fun_app$f (times$b ?v1) ?v0)) (= (fun_app$f (times$b (fun_app$f (power$b ?v0) ?v2)) ?v1) (fun_app$f (times$b ?v1) (fun_app$f (power$b ?v0) ?v2)))) ))
(assert (forall ((?v0 Nat$) (?v1 Nat$) (?v2 Nat$)) (= (fun_app$f (power$b ?v0) (fun_app$f (times$b ?v1) ?v2)) (fun_app$f (power$b (fun_app$f (power$b ?v0) ?v1)) ?v2)) ))
(assert (forall ((?v0 Enat$) (?v1 Nat$) (?v2 Nat$)) (= (fun_app$j (power$a ?v0) (fun_app$f (times$b ?v1) ?v2)) (fun_app$j (power$a (fun_app$j (power$a ?v0) ?v1)) ?v2)) ))
(assert (forall ((?v0 Natural$) (?v1 Nat$) (?v2 Nat$)) (= (fun_app$i (power$ ?v0) (fun_app$f (times$b ?v1) ?v2)) (fun_app$i (power$ (fun_app$i (power$ ?v0) ?v1)) ?v2)) ))
(assert (forall ((?v0 Enat$)) (! (= (fun_app$j (power$a ?v0) zero$a) one$) :pattern ((power$a ?v0)))))
(assert (forall ((?v0 Nat$)) (! (= (fun_app$f (power$b ?v0) zero$a) one$a) :pattern ((power$b ?v0)))))
(assert (forall ((?v0 Natural$)) (! (= (fun_app$i (power$ ?v0) zero$a) one$b) :pattern ((power$ ?v0)))))
(assert (forall ((?v0 Nat$)) (= (fun_app$j (power$a zero$) ?v0) (ite (= ?v0 zero$a) one$ zero$)) ))
(assert (forall ((?v0 Nat$)) (= (fun_app$f (power$b zero$a) ?v0) (ite (= ?v0 zero$a) one$a zero$a)) ))
(assert (forall ((?v0 Nat$)) (= (fun_app$i (power$ zero$b) ?v0) (ite (= ?v0 zero$a) one$b zero$b)) ))
(assert (forall ((?v0 Nat$) (?v1 Nat$)) (= (fun_app$f (times$b ?v0) ?v1) (ite (= ?v0 zero$a) zero$a (plus$ ?v1 (fun_app$f (times$b (fun_app$f (minus$ ?v0) one$a)) ?v1)))) ))
(assert (forall ((?v0 Natural$) (?v1 Natural$) (?v2 Natural$)) (= (= (plus$a ?v0 ?v1) (plus$a ?v0 ?v2)) (= ?v1 ?v2)) ))
(assert (forall ((?v0 Nat$) (?v1 Nat$) (?v2 Nat$)) (= (= (plus$ ?v0 ?v1) (plus$ ?v0 ?v2)) (= ?v1 ?v2)) ))
(assert (forall ((?v0 Natural$) (?v1 Natural$) (?v2 Natural$)) (= (= (plus$a ?v0 ?v1) (plus$a ?v2 ?v1)) (= ?v0 ?v2)) ))
(assert (forall ((?v0 Nat$) (?v1 Nat$) (?v2 Nat$)) (= (= (plus$ ?v0 ?v1) (plus$ ?v2 ?v1)) (= ?v0 ?v2)) ))
(assert (forall ((?v0 Enat$)) (= (plus$b ?v0 zero$) ?v0) ))
(assert (forall ((?v0 Nat$)) (= (plus$ ?v0 zero$a) ?v0) ))
(assert (forall ((?v0 Natural$)) (= (plus$a ?v0 zero$b) ?v0) ))
(assert (forall ((?v0 Enat$)) (= (plus$b zero$ ?v0) ?v0) ))
(assert (forall ((?v0 Nat$)) (= (plus$ zero$a ?v0) ?v0) ))
(assert (forall ((?v0 Natural$)) (= (plus$a zero$b ?v0) ?v0) ))
(assert (forall ((?v0 Nat$) (?v1 Nat$) (?v2 Nat$)) (= (fun_app$f (minus$ (plus$ ?v0 ?v1)) (plus$ ?v2 ?v1)) (fun_app$f (minus$ ?v0) ?v2)) ))
(assert (forall ((?v0 Natural$) (?v1 Natural$) (?v2 Natural$)) (= (fun_app$h (minus$b (plus$a ?v0 ?v1)) (plus$a ?v2 ?v1)) (fun_app$h (minus$b ?v0) ?v2)) ))
(assert (forall ((?v0 Nat$) (?v1 Nat$) (?v2 Nat$)) (= (fun_app$f (minus$ (plus$ ?v0 ?v1)) (plus$ ?v0 ?v2)) (fun_app$f (minus$ ?v1) ?v2)) ))
(assert (forall ((?v0 Natural$) (?v1 Natural$) (?v2 Natural$)) (= (fun_app$h (minus$b (plus$a ?v0 ?v1)) (plus$a ?v0 ?v2)) (fun_app$h (minus$b ?v1) ?v2)) ))
(assert (forall ((?v0 Nat$) (?v1 Nat$)) (= (fun_app$f (minus$ (plus$ ?v0 ?v1)) ?v1) ?v0) ))
(assert (forall ((?v0 Natural$) (?v1 Natural$)) (= (fun_app$h (minus$b (plus$a ?v0 ?v1)) ?v1) ?v0) ))
(check-sat)
(exit)

